data/results/2026_03_24_00_33_29_set_set_set_s003_g003_max.sol
# Objective value = 58
c_n1n4n5n6n7 5
c_n2n3n5n6 4
c_n4n5n6n7 3
c_n1n5n6n7 4
c_n1n4n6n7 3
c_n1n4n5n7 4
c_n1n4n5n6 3
c_n3n5n6 2
c_n2n5n6 3
c_n2n3n6 3
c_n2n3n5 2
c_n5n6n7 3
c_n4n6n7 1
c_n4n5n7 2
c_n4n5n6 2
c_n1n6n7 2
c_n1n5n7 3
c_n1n5n6 2
c_n1n4n7 3
c_n1n4n6 2
c_n1n4n5 2
y_n0n1 0
y_n1n2 1
y_n0n2 0
y_n1n3 1
y_n0n3 0
y_n1n4 0
y_n0n4 0
y_n1n5 1
y_n0n5 0
y_n1n6 1
y_n0n6 0
y_n1n7 1
y_n0n7 0
y_n2n3 1
y_n2n4 0
y_n2n5 0
y_n2n6 0
y_n2n7 0
y_n3n4 0
y_n3n5 0
y_n3n6 0
y_n3n7 0
y_n4n5 1
y_n4n6 1
y_n4n7 1
y_n5n6 1
y_n5n7 0
y_n6n7 0
pos_n0 7
pos_n1 1
pos_n2 5
pos_n3 6
pos_n4 0
pos_n5 3
pos_n6 4
pos_n7 2
z_n4n7 0
z_n6n7 0
z_n5n7 1
z_n4n6 0
z_n4n5 0
z_n5n6 1
z_n3n5 0
z_n3n6 0
z_n2n5 0
z_n2n6 1
z_n1n7 1
z_n1n6 0
z_n1n5 0
z_n2n3 1
z_n3n4 0
z_n1n3 0
z_n3n7 0
z_n2n4 0
z_n1n2 0
z_n2n7 0
z_n1n4 1
z_n0n5 0
z_n0n3 0
z_n0n2 0
z_n0n7 0
z_n0n1 0
z_n0n4 0
