logs/2026_03_24_00_33_29_set_set_set_s003_g003_max.log
[2026-03-24T00:33:29.563Z] Pipeline "set_set_set_s003_g003" → 2026_03_24_00_33_29_set_set_set_s003_g003_max.sol
Set parameter WLSAccessID
Set parameter WLSSecret
Set parameter LicenseID to value 2792458
Set parameter LogFile to value "gurobi.log"
Using license file /root/gurobi.lic
Academic license 2792458 - for non-commercial use only - registered to an___@studenti.unipg.it

Gurobi Optimizer version 13.0.1 build v13.0.1rc0 (linux64 - "Ubuntu 24.04.4 LTS")
Copyright (c) 2026, Gurobi Optimization, LLC

Warning: Duplicate section found (read 'binary') - Is a variable name equal to an LP file format keyword?
Warning: Duplicate section found (read 'binary') - Is a variable name equal to an LP file format keyword?
Warning: Duplicate section found (read 'binary') - Is a variable name equal to an LP file format keyword?
Warning: Duplicate section found (read 'binary') - Is a variable name equal to an LP file format keyword?
Warning: Duplicate section found (read 'binary') - Is a variable name equal to an LP file format keyword?
Warning: Duplicate section found (read 'binary') - Is a variable name equal to an LP file format keyword?
Warning: Duplicate section found (read 'binary') - Is a variable name equal to an LP file format keyword?
Warning: Duplicate section found (read 'binary') - Is a variable name equal to an LP file format keyword?
Warning: Duplicate section found (read 'binary') - Is a variable name equal to an LP file format keyword?
Warning: Duplicate section found (read 'binary') - Is a variable name equal to an LP file format keyword?
Warning: Further warnings of this type will be omitted.
Read LP format model from file /root/bgw/data/uploads/2026_03_24_00_33_29_set_set_set_s003_g003_max.lp
Reading time = 0.00 seconds
: 381 rows, 84 columns, 989 nonzeros

Using Gurobi shared library /opt/gurobi1301/linux64/lib/libgurobi.so.13.0.1

CPU model: AMD EPYC-Genoa Processor, instruction set [SSE2|AVX|AVX2|AVX512]
Thread count: 16 physical cores, 16 logical processors, using up to 16 threads

Academic license 2792458 - for non-commercial use only - registered to an___@studenti.unipg.it
Optimize a model with 381 rows, 84 columns and 989 nonzeros (Max)
Model fingerprint: 0xd84568b9
Model has 21 linear objective coefficients
Variable types: 29 continuous, 55 integer (55 binary)
Coefficient statistics:
  Matrix range     [1e+00, 9e+00]
  Objective range  [1e+00, 1e+00]
  Bounds range     [1e+00, 1e+00]
  RHS range        [1e+00, 1e+01]

Found heuristic solution: objective 21.0000000
Presolve removed 232 rows and 34 columns
Presolve time: 0.00s
Presolved: 149 rows, 50 columns, 482 nonzeros
Variable types: 0 continuous, 50 integer (43 binary)
Found heuristic solution: objective 48.0000000

Root relaxation: objective 1.090000e+02, 43 iterations, 0.00 seconds (0.00 work units)

    Nodes    |    Current Node    |     Objective Bounds      |     Work
 Expl Unexpl |  Obj  Depth IntInf | Incumbent    BestBd   Gap | It/Node Time

     0     0  109.00000    0   25   48.00000  109.00000   127%     -    0s
H    0     0                      55.0000000  109.00000  98.2%     -    0s
H    0     0                      58.0000000  109.00000  87.9%     -    0s
     0     0  109.00000    0   26   58.00000  109.00000  87.9%     -    0s
     0     0  106.00000    0   26   58.00000  106.00000  82.8%     -    0s
     0     0  106.00000    0   17   58.00000  106.00000  82.8%     -    0s
     0     0  104.77778    0   27   58.00000  104.77778  80.7%     -    0s
     0     0  104.77778    0   27   58.00000  104.77778  80.7%     -    0s
     0     0  103.33333    0   27   58.00000  103.33333  78.2%     -    0s
     0     0  102.66667    0   27   58.00000  102.66667  77.0%     -    0s
     0     0  102.66667    0   27   58.00000  102.66667  77.0%     -    0s
     0     0  102.00000    0   27   58.00000  102.00000  75.9%     -    0s
     0     0  102.00000    0   27   58.00000  102.00000  75.9%     -    0s
     0     0  101.83333    0   26   58.00000  101.83333  75.6%     -    0s
     0     0  101.83333    0   26   58.00000  101.83333  75.6%     -    0s
     0     0  100.00000    0   26   58.00000  100.00000  72.4%     -    0s
     0     0  100.00000    0   24   58.00000  100.00000  72.4%     -    0s
     0     0  100.00000    0   24   58.00000  100.00000  72.4%     -    0s
     0     0  100.00000    0   24   58.00000  100.00000  72.4%     -    0s
     0     2  100.00000    0   24   58.00000  100.00000  72.4%     -    0s

Cutting planes:
  Gomory: 4
  Cover: 2
  MIR: 2
  Inf proof: 19
  Zero half: 1

Explored 2965 nodes (21698 simplex iterations) in 0.18 seconds (0.09 work units)
Thread count was 16 (of 16 available processors)

Solution count 4: 58 55 48 21 

Optimal solution found (tolerance 1.00e-04)
Best objective 5.800000000000e+01, best bound 5.800000000000e+01, gap 0.0000%

Wrote result file '/root/bgw/data/results/2026_03_24_00_33_29_set_set_set_s003_g003_max.sol'

